[runlim] version:		1.10
[runlim] time limit:		311040000 seconds
[runlim] real time limit:	600 seconds
[runlim] space limit:		14000 MB
[runlim] argv[0]:		python3
[runlim] argv[1]:		cp.py
[runlim] argv[2]:		scen03
[runlim] start:			Sat Jan 24 21:33:14 2026
[runlim] main pid:		109787
[runlim] sample:		10.0 time, 10.1 real, 1313.6 MB
Building CP model...
Solving CP Optimizer...
 ! --------------------------------------------------- CP Optimizer 22.1.1.0 --
 ! Minimization problem - 15940 variables, 413179 constraints
 ! Presolve      : 413581 extractables eliminated
 ! LogVerbosity         = Terse
 ! Initial process time : 3.17s (3.16s extraction + 0.02s propagation)
 !  . Log search space  : 15940.0 (before), 15940.0 (after)
 !  . Memory usage      : 63.4 MB (before), 63.4 MB (after)
 ! Using parallel search with 12 workers.
 ! ----------------------------------------------------------------------------
 !          Best Branches  Non-fixed    W       Branch decision
                        0      15940                 -
 + New bound is 0
                        0      15940    1            -
 + New bound is 1
 *            47      432  7.39s        6      (gap is 97.87%)
 *            46      814  7.46s        6      (gap is 97.83%)
 *            45     1246  8.62s        6      (gap is 97.78%)
 *            44     1505  8.67s       12      (gap is 97.73%)
 *            43     1907  8.72s       12      (gap is 97.67%)
 *            42     6637  11.26s       6      (gap is 97.62%)
 *            41     7077  12.25s       6      (gap is 97.56%)
 *            40     7483  12.33s       6      (gap is 97.50%)
[runlim] sample:		83.2 time, 20.1 real, 2425.5 MB
 *            39     7728  12.85s       6      (gap is 97.44%)
 *            38     8257  13.75s       6      (gap is 97.37%)
 *            37     8811  14.55s       6      (gap is 97.30%)
 *            36     9198  15.33s       6      (gap is 97.22%)
 *            35     7889  18.08s      10      (gap is 97.14%)
 *            34    13826  20.53s       3      (gap is 97.06%)
[runlim] sample:		149.8 time, 30.1 real, 2596.9 MB
 *            33    14273  22.58s       3      (gap is 96.97%)
 *            32    14786  24.43s       3      (gap is 96.88%)
 *            31    21963  26.05s       6      (gap is 96.77%)
 *            30    27466  28.99s      12      (gap is 96.67%)
 ! Time = 28.99s, Average fail depth = 1282, Memory usage = 1.8 GB
 ! Current bound is 1 (gap is 96.67%)
 !          Best Branches  Non-fixed    W       Branch decision
[runlim] sample:		208.1 time, 40.1 real, 2662.0 MB
 *            29    34278  33.95s       6      (gap is 96.55%)
 *            28    31088  36.63s       8      (gap is 96.43%)
 *            27    36570  39.92s      12      (gap is 96.30%)
 *            26    38560  42.03s       3      (gap is 96.15%)
[runlim] sample:		272.8 time, 50.1 real, 2770.6 MB
 *            25    41246  42.59s       2      (gap is 96.00%)
 *            24    47918  44.04s       6      (gap is 95.83%)
 *            21    46398  44.09s       9      (gap is 95.24%)
 *            20    49480  46.80s      12      (gap is 95.00%)
[runlim] sample:		335.3 time, 60.1 real, 2814.8 MB
 *            19    55179  54.96s       1      (gap is 94.74%)
[runlim] sample:		396.5 time, 70.1 real, 2847.8 MB
 *            18    69025  69.50s       3      (gap is 94.44%)
[runlim] sample:		459.9 time, 80.1 real, 2884.8 MB
[runlim] sample:		525.1 time, 90.1 real, 2917.7 MB
[runlim] sample:		587.0 time, 100.1 real, 2944.2 MB
 *            17     106k  99.08s       9      (gap is 94.12%)
[runlim] sample:		656.8 time, 110.1 real, 2997.8 MB
 *            16    97001  110.72s     10      (gap is 93.75%)
[runlim] sample:		727.2 time, 120.1 real, 3036.2 MB
[runlim] sample:		797.3 time, 130.1 real, 3059.1 MB
[runlim] sample:		863.8 time, 140.1 real, 3078.8 MB
[runlim] sample:		929.4 time, 150.1 real, 3111.6 MB
[runlim] sample:		996.1 time, 160.1 real, 3144.6 MB
[runlim] sample:		1053.4 time, 170.1 real, 3146.6 MB
 *            15     179k  164.67s      1      (gap is 93.33%)
[runlim] sample:		1111.1 time, 180.1 real, 3155.9 MB
[runlim] sample:		1169.0 time, 190.1 real, 3158.9 MB
[runlim] sample:		1231.3 time, 200.1 real, 3161.7 MB
[runlim] sample:		1297.2 time, 210.1 real, 3165.2 MB
[runlim] sample:		1363.8 time, 220.1 real, 3165.2 MB
 *            14     223k  219.03s      4      (gap is 92.86%)
[runlim] sample:		1438.0 time, 230.1 real, 3180.7 MB
[runlim] sample:		1502.7 time, 240.1 real, 3199.8 MB
[runlim] sample:		1574.5 time, 250.1 real, 3216.0 MB
[runlim] sample:		1629.4 time, 260.1 real, 3220.4 MB
[runlim] sample:		1695.3 time, 270.1 real, 3220.5 MB
[runlim] sample:		1759.4 time, 280.1 real, 3221.2 MB
[runlim] sample:		1823.8 time, 290.1 real, 3221.2 MB
[runlim] sample:		1897.9 time, 300.1 real, 3227.7 MB
[runlim] sample:		1963.5 time, 310.1 real, 3228.0 MB
[runlim] sample:		2031.9 time, 320.1 real, 3232.8 MB
[runlim] sample:		2102.8 time, 330.1 real, 3233.0 MB
[runlim] sample:		2170.7 time, 340.1 real, 3235.3 MB
[runlim] sample:		2246.2 time, 350.1 real, 3240.0 MB
[runlim] sample:		2314.7 time, 360.1 real, 3247.0 MB
[runlim] sample:		2384.0 time, 370.1 real, 3249.3 MB
[runlim] sample:		2454.5 time, 380.1 real, 3258.5 MB
[runlim] sample:		2525.9 time, 390.1 real, 3264.8 MB
[runlim] sample:		2598.9 time, 400.1 real, 3273.5 MB
[runlim] sample:		2677.4 time, 410.1 real, 3288.7 MB
[runlim] sample:		2744.3 time, 420.1 real, 3289.4 MB
[runlim] sample:		2811.2 time, 430.1 real, 3289.9 MB
[runlim] sample:		2884.4 time, 440.1 real, 3290.4 MB
[runlim] sample:		2953.3 time, 450.1 real, 3290.7 MB
[runlim] sample:		3024.0 time, 460.1 real, 3291.0 MB
[runlim] sample:		3095.8 time, 470.1 real, 3291.0 MB
[runlim] sample:		3166.5 time, 480.1 real, 3291.0 MB
[runlim] sample:		3234.4 time, 490.1 real, 3291.2 MB
[runlim] sample:		3308.5 time, 500.1 real, 3291.2 MB
[runlim] sample:		3386.8 time, 510.1 real, 3291.2 MB
[runlim] sample:		3461.5 time, 520.1 real, 3291.3 MB
[runlim] sample:		3538.0 time, 530.1 real, 3292.2 MB
[runlim] sample:		3608.1 time, 540.1 real, 3292.8 MB
              14     521k      15116    9   F     0 != x_364_498
 + New bound is 2 (gap is 85.71%)
[runlim] sample:		3681.9 time, 550.1 real, 3296.2 MB
[runlim] sample:		3745.5 time, 560.1 real, 3296.7 MB
[runlim] sample:		3816.1 time, 570.1 real, 3296.7 MB
[runlim] sample:		3888.0 time, 580.1 real, 3296.7 MB
[runlim] sample:		3960.0 time, 590.1 real, 3296.7 MB
[runlim] sample:		4030.1 time, 600.1 real, 3296.8 MB
[runlim] end:			Sat Jan 24 21:43:14 2026
[runlim] status:		out of time
[runlim] result:		2
[runlim] children:		5965
[runlim] real:			600.19 seconds
[runlim] time:			4030.12 seconds
[runlim] space:			3296.8 MB
[runlim] samples:		6000
